50
    1    65    55
    2    66    56
    3   106    96
    4   102    92
    5    56    46
    6    96    86
    7    37    27
    8    92    82
    9    18     8
   10    77    67
   11    75    65
   12   101    91
   13    91    81
   14    29    19
   15   105    95
   16    75    65
   17   103    93
   18    22    12
   19    32    22
   20   102    92
   21   105    95
   22    51    41
   23    89    79
   24    19     9
   25   106    96
   26    51    41
   27    66    56
   28   110   100
   29    38    28
   30    51    41
   31    38    28
   32   104    94
   33    55    45
   34    34    24
   35    98    88
   36    94    84
   37    71    61
   38    42    32
   39   100    90
   40    49    39
   41    87    77
   42    49    39
   43    21    11
   44    95    85
   45    66    56
   46    52    42
   47    24    14
   48    68    58
   49    66    56
   50    45    35
2411
